(set-info :smt-lib-version 2.6)
(set-logic QF_FPBV)
(set-option :produce-models true)
(set-info :source |Random FP created by PyMPF|)
(set-info :license |https://www.gnu.org/licenses/gpl-3.0.html|)
(set-info :category random)
(set-info :status sat)
;; fp.from.ubv(BitVec 64)
(declare-const x (_ BitVec 64))
(assert (= x #b1111011011000011010110010100110101110110000010100111011011110011))
;; x should be 17781153943016601331

(declare-const r Float16)
(assert (= r ((_ to_fp_unsigned 5 11) RNE x)))
(assert (fp.eq r (_ +oo 5 11)))
(check-sat)
(exit)
